c turning on binary mode checking
c parsing input formula with 202048 variables and 780975 clauses
c finished parsing, read 2308888 bytes from proof file
c detected empty clause; start verification via backward checking
c 6188 of 780975 clauses in core                            
c 2228 of 86402 lemmas in core using 86266 resolution steps
c 0 RAT lemmas in core; 545 redundant literals in core lemmas
s VERIFIED
c verification time: 1.202 seconds
